
  12   12
  10   10   10   10   10   10   10   10   10   10   10   10

   0   0   0   0   0   0   0   0   0   0   0   0   0   4 2 5 6 11 
   9   0   1   1   0   1   0   0   0   0   0   0   0   2 4 3 
   3   0   0   0   0   0   0   1   0   0   0   0   0   2 9 7 
   4   0   6   4   1   0   0   0   0   0   0   1   5   2 8 7 
   4   0   7   0   0   0   0   0   0   0   1   0   0   2 10 7 
   9   0   0   9   0   0   0   0   0   1   0   0   0   2 8 7 
   6   1   5   0   0   0   0   9   0   0   9   0   0   1 12
   5   0   4   4   0   0   0   5   0   0   0   0   0   1 12
   2   9   3   0   9   7   0   0   0   7   0   0   0   1 12
   5   0   9   7   0   7   0   0   5   5   0   9   0   1 12
   4   5   5   0   0   0   5   0   0   7   0   0   0   1 12
   0   0   0   0   0   0   0   0   0   0   0   0   0   0 
